NAME : random_18
COMMENT : 40 random nodes
TYPE : TSP
DIMENSION : 40
EDGE_WEIGHT_TYPE : EUC_2D
NODE_COORD_SECTION
1 246 273
2 692 13
3 629 962
4 256 388
5 746 210
6 928 485
7 422 419
8 284 559
9 26 426
10 1 971
11 809 338
12 862 31
13 465 234
14 837 175
15 844 661
16 254 893
17 513 473
18 242 955
19 668 420
20 56 165
21 401 332
22 427 44
23 837 491
24 978 469
25 23 365
26 410 186
27 45 299
28 996 107
29 49 318
30 620 651
31 867 341
32 1000 227
33 104 772
34 428 804
35 1 749
36 194 602
37 62 660
38 825 301
39 172 506
40 881 670
EOF